p tw 246 314
1 2
2 3
3 4
4 5
5 6
6 7
7 8
8 9
9 10
10 11
11 12
12 13
13 14
14 15
15 16
16 17
17 18
18 19
19 20
20 21
21 22
22 23
23 24
24 25
25 26
26 27
27 28
28 29
29 30
30 31
31 32
32 33
33 34
34 35
35 36
36 37
37 38
38 39
39 40
40 41
41 42
42 43
43 44
44 45
45 46
46 47
47 48
48 49
49 50
50 51
51 52
52 53
53 54
54 55
55 56
56 57
56 58
57 58
58 59
58 60
59 60
60 61
61 62
61 64
62 63
63 64
64 65
65 66
66 67
67 68
68 69
68 70
69 70
70 71
71 72
72 73
73 74
74 75
75 76
76 77
77 78
78 79
79 80
80 81
80 83
81 82
82 84
83 84
84 85
85 86
86 87
87 88
88 89
89 90
90 91
91 92
92 93
92 94
92 95
92 96
93 110
94 96
95 97
95 119
96 97
97 98
97 99
98 99
99 100
100 101
100 102
100 105
100 125
101 103
102 103
103 104
104 105
105 106
105 107
106 107
107 108
108 109
109 112
109 113
110 111
111 112
112 116
112 117
113 114
114 115
115 116
115 129
116 120
116 122
117 118
118 132
118 133
119 123
119 137
120 121
121 122
122 123
123 126
124 125
125 126
126 127
126 128
127 128
128 131
129 130
130 131
130 149
131 132
132 136
132 138
133 134
134 135
135 142
136 138
136 141
137 139
137 140
138 139
139 141
139 143
140 143
140 150
141 152
141 153
142 144
142 159
143 144
144 145
144 146
145 146
145 185
146 147
146 148
147 148
148 151
149 158
150 151
150 169
151 152
152 153
152 157
153 154
154 155
155 156
156 157
156 189
157 161
158 160
159 162
159 163
160 161
160 164
161 162
162 165
163 165
163 170
164 166
164 167
165 166
166 168
167 168
167 186
168 171
169 174
170 171
170 175
171 172
171 173
172 173
173 176
174 176
174 208
175 177
175 178
176 177
177 180
178 179
179 180
179 183
180 181
181 182
182 184
183 184
183 202
184 187
185 187
186 188
186 198
187 188
188 189
188 191
188 194
189 190
190 194
190 219
191 192
192 193
193 195
194 197
195 196
196 197
197 199
197 200
197 203
198 203
199 204
200 201
201 205
202 206
202 207
203 204
204 205
205 206
206 209
206 210
207 210
207 213
208 211
209 214
210 211
211 212
211 214
212 215
213 216
214 215
215 216
216 217
216 218
217 218
218 219
218 221
219 220
220 221
221 222
221 223
221 224
222 224
223 225
224 225
225 226
225 227
225 228
225 230
225 231
225 232
226 239
227 233
228 229
229 234
230 240
231 232
232 233
233 234
234 235
234 236
234 237
235 238
236 237
237 238
238 239
239 240
240 241
241 242
241 243
241 244
242 245
243 244
244 245
245 246
